%nproc=8
%mem=32GB
#p opt b3lyp freq=raman AUG-cc-pVDZ int=fine em=gd3bj

0 1