%nproc=4
%mem=32GB
#p b3lyp Def2SVP integral=ultrafine

1 2